certificates/rado_a11_c245_N26.cnf
c Rad2 upper bound instance: x1 + 11*x2 - x3 = 245, interval [1,26]
p cnf 26 122
1 9 23 0
-1 -9 -23 0
1 20 24 0
-1 -20 -24 0
2 10 23 0
-2 -10 -23 0
2 21 24 0
-2 -21 -24 0
3 11 23 0
-3 -11 -23 0
3 22 24 0
-3 -22 -24 0
1 4 22 0
-1 -4 -22 0
4 12 23 0
-4 -12 -23 0
4 23 24 0
-4 -23 -24 0
2 5 22 0
-2 -5 -22 0
5 13 23 0
-5 -13 -23 0
5 24 0
-5 -24 0
3 6 22 0
-3 -6 -22 0
6 14 23 0
-6 -14 -23 0
6 24 25 0
-6 -24 -25 0
4 7 22 0
-4 -7 -22 0
7 15 23 0
-7 -15 -23 0
7 24 26 0
-7 -24 -26 0
5 8 22 0
-5 -8 -22 0
8 16 23 0
-8 -16 -23 0
6 9 22 0
-6 -9 -22 0
9 17 23 0
-9 -17 -23 0
7 10 22 0
-7 -10 -22 0
10 18 23 0
-10 -18 -23 0
8 11 22 0
-8 -11 -22 0
11 19 23 0
-11 -19 -23 0
9 12 22 0
-9 -12 -22 0
12 20 23 0
-12 -20 -23 0
10 13 22 0
-10 -13 -22 0
13 21 23 0
-13 -21 -23 0
11 14 22 0
-11 -14 -22 0
14 22 23 0
-14 -22 -23 0
1 15 21 0
-1 -15 -21 0
12 15 22 0
-12 -15 -22 0
15 23 0
-15 -23 0
2 16 21 0
-2 -16 -21 0
13 16 22 0
-13 -16 -22 0
16 23 24 0
-16 -23 -24 0
3 17 21 0
-3 -17 -21 0
14 17 22 0
-14 -17 -22 0
17 23 25 0
-17 -23 -25 0
4 18 21 0
-4 -18 -21 0
15 18 22 0
-15 -18 -22 0
18 23 26 0
-18 -23 -26 0
5 19 21 0
-5 -19 -21 0
16 19 22 0
-16 -19 -22 0
6 20 21 0
-6 -20 -21 0
17 20 22 0
-17 -20 -22 0
7 21 0
-7 -21 0
18 21 22 0
-18 -21 -22 0
8 21 22 0
-8 -21 -22 0
19 22 0
-19 -22 0
9 21 23 0
-9 -21 -23 0
20 22 23 0
-20 -22 -23 0
10 21 24 0
-10 -21 -24 0
21 22 24 0
-21 -22 -24 0
11 21 25 0
-11 -21 -25 0
22 25 0
-22 -25 0
1 20 26 0
-1 -20 -26 0
12 21 26 0
-12 -21 -26 0
22 23 26 0
-22 -23 -26 0
