certificates/rado_a11_c245_N26.drat
-24 22 -26 0
22 -26 0
d -24 22 -26 0
-26 0
24 -22 0
-22 0
19 0
25 0
23 0
-15 0
-17 0
-11 0
12 0
18 0
14 0
20 0
8 0
-4 0
0
